9443
9355
9369
9387
9198
9410
9400
9431
9387
9248
9139
9207
9236
9370
9324
9473
9362
9262
9295
9315
9253
9311
9300
9439
9344
9317
9357
9341
9276
9298
9309
9254
9376
9442
9239
9193
9246
9250
9282
9470
9357
9292
9293
9335
9510
9403
9374
9227
9371
9401
9361
9330
9392
9438
9324
9383
9236
9329
9383
9380
9329
9367
9248
9380
9297
9413
9385
9476
9270
9220
9430
9337
9351
9193
9298
9449
9420
9336
9230
9480
9371
9434
9180
9329
9324
9275
9277
9259
9501
9264
9298
9274
9258
9293
9288
9380
9308
9430
9220
9429
